NAME : rnd58_20.tsp
TYPE : TSP
DIMENSION : 20
EDGE_WEIGHT_TYPE : EUC_2D
NODE_COORD_SECTION
0 51 797
1 967 647
2 154 746
3 484 223
4 289 803
5 682 621
6 807 181
7 715 877
8 195 800
9 623 329
10 177 849
11 222 791
12 751 98
13 488 499
14 613 623
15 427 473
16 517 42
17 595 312
18 636 377
19 645 341
